c 
c MolecularSimulation 1.0.2
c Simulation written: Tue Aug 14 15:19:25 2012
c Test: Ogihara-Ray
c Input: ./data/testCNF/SWEEP_R12_K3_N20_M236_S001.cnf
c 
s UNSATISFIABLE
v 0
c algorithmType:  Ogihara-Ray
c algorithmTime:  0.013516
c solutionMemory: 0
c mixCount:       544
c extractCount:   708
c appendCount:    36
c splitCount:     18
c spliceCount:    0
c purifyCount:    254
c numVar:         20
c numClause:      236
c 
